\ENCODING=ISO-8859-1
\Problem name: testp1.lp

Maximize
 obj: 7.92 x0 - 9.05 x1 - 1.92 x2 + 5.03 x3 - 4.98 x4 - 6.99 x5 + 6.92 x6
      - 5.07 x7 - 8.05 x8 - 9.08 x9 + 168.27 x10 - 15.27 x11 - 134.72 x12
      - 99.46 x13 - 30.67 x14 - 49.31 x15 + 81.32 x16 - 59.27 x17 + 97.68 x18
      - 140.67 x19
Subject To
 c1:  3 x1 + 3 x5 - x6 + 12 x9 + 17 x10 <= 80
 c2:  - x0 - x1 + 14 x2 + 15 x3 + 2 x6 + 4 x7 + 15 x8 + 8 x11 <= 92
 c3:  6 x0 + 8 x3 + 12 x4 + 6 x6 - x7 + x9 + 12 x12 <= 92
 c5:  14 x3 + 19 x6 - x14 <= 99
 c6:  9 x1 + 10 x8 + 19 x9 + 15 x15 <= 93
 c7:  12 x0 + 7 x1 + 8 x4 + 18 x5 + 2 x6 + 4 x8 + 19 x16 <= 77
 c8:  4 x0 + 3 x2 + 3 x6 + 11.5450292397661 x17 <= 49.5450292397661
 c9:  17 x3 + 6 x18 <= 89
 c10: 17 x1 + 6 x2 + 3 x6 + 9 x8 + 3 x19 <= 65
 c12: 18 x0 + 3 x1 + 7 x2 + 20 x4 + 7 x9 <= 81
 c13: 6 x0 + 9 x1 + 2 x5 + 2 x6 + x7 + 8 x8 <= 95
 c14: 3 x3 + 19 x4 + 2 x9 <= 65
 c15: 10 x3 + 4 x5 + 7 x8 <= 66
 c16: 7 x0 + 10 x1 + x4 + 4 x9 <= 82
 c17: 7 x0 + 4 x2 + 6 x5 + 8 x6 + 9 x7 + 3 x8 + 7 x9 <= 79
 c18: 2 x0 + 9 x1 + 15 x2 + 11 x6 - x7 <= 70
 c19: 13 x0 + 2 x6 + 9 x8 <= 84
 c20: x10 + x11 + x12 + x13 + x14 + x15 + x16 + x17 + x18 + x19 <= 3
 c1:  8 x0 - 9 x1 - 2 x2 + 5 x3 - 5 x4 - 7 x5 + 7 x6 - 5 x7 - 8 x8 - 9 x9
      + 167 x10 - 16 x11 - 136 x12 - 98 x13 - 29 x14 - 48 x15 + 80 x16 - 60 x17
      + 99 x18 - 141 x19 - x20  = 0
 c2:  - 8 x0 - 5 x1 + 8 x2 + 3 x3 + 2 x4 + x5 - 8 x6 - 7 x7 - 5 x8 - 8 x9
      + 127 x10 + 73 x11 + 128 x12 - 146 x13 - 167 x14 - 131 x15 + 132 x16
      + 73 x17 - 132 x18 + 33 x19 - x21  = 0
Bounds
 0 <= x0 <= 4.5
 0 <= x1 <= 3.82352941176471
 0 <= x2 <= 5.25185185185185
 0 <= x3 <= 5.23529411764706
 0 <= x4 <= 3.42105263157895
 0 <= x5 <= 4.27777777777778
 0 <= x6 <= 5.26315789473684
 0 <= x7 <= 8.77777777777778
 0 <= x8 <= 6.68823529411765
 0 <= x9 <= 4.89473684210526
 0 <= x10 <= 1
 0 <= x11 <= 1
 0 <= x12 <= 1
 0 <= x13 <= 1
 0 <= x14 <= 1
 0 <= x15 <= 1
 0 <= x16 <= 1
 0 <= x17 <= 1
 0 <= x18 <= 1
 0 <= x19 <= 1
 83.4351851851852 <= x20 <= 417.785714285714
-29.0480599647266 <= x21 <= 436.648148148148
Binaries
 x10  x11  x12  x13  x14  x15  x16  x17  x18  x19 
End
